DIMENSION: 16
EDGE_WEIGHT_TYPE: EXPLICIT
EDGE_WEIGHT_FORMAT: FULL_MATRIX
EDGE_WEIGHT_SECTION:
32767 8 32767 32767 32767 4 32767 90 32767 32767 69 32767 32767 67 9 32767 
8 32767 32767 45 45 32767 32767 32767 32767 32767 81 32767 32767 35 13 32767 
32767 32767 32767 32767 32767 32767 32767 32767 32767 32767 32767 74 77 32767 73 32767 
32767 45 32767 32767 32767 32767 32767 32767 86 32767 3 32767 32767 32767 17 70 
32767 45 32767 32767 32767 32767 32767 42 71 32767 32767 39 32767 32767 32767 32767 
4 32767 32767 32767 32767 32767 32767 32767 32767 32767 32767 32767 32767 62 59 32767 
32767 32767 32767 32767 32767 32767 32767 32767 32767 32767 32767 32767 32767 32767 32767 32767 
90 32767 32767 32767 42 32767 32767 32767 53 32767 32767 32767 32767 32767 32767 32767 
32767 32767 32767 86 71 32767 32767 53 32767 32767 32767 81 80 32767 32767 19 
32767 32767 32767 32767 32767 32767 32767 32767 32767 32767 32767 32767 32767 32767 32767 32767 
69 81 32767 3 32767 32767 32767 32767 32767 32767 32767 32767 32767 79 32767 40 
32767 32767 74 32767 39 32767 32767 32767 81 32767 32767 32767 32767 32767 50 32767 
32767 32767 77 32767 32767 32767 32767 32767 80 32767 32767 32767 32767 41 68 68 
67 35 32767 32767 32767 62 32767 32767 32767 32767 79 32767 41 32767 32767 47 
9 13 73 17 32767 59 32767 32767 32767 32767 32767 50 68 32767 32767 32767 
32767 32767 32767 70 32767 32767 32767 32767 19 32767 40 32767 68 47 32767 32767 
EOF